128
1000
140
59
103
144
88
1
25
9
121
128
139
26
79
241
72
249
250
41
73
22
207
86
40
134
219
183
232
77
6
119
4
28
5
36
108
216
3
91
149
201
173
106
12
65
60
42
207
161
77
47
25
60
66
57
126
120
71
203
76
167
127
180
107
154
238
216
203
74
80
238
64
203
214
109
208
49
179
128
138
95
78
44
200
112
96
88
37
34
119
200
1
222
176
240
138
153
147
241
182
130
216
138
200
93
13
96
219
148
12
6
109
1
27
81
58
170
55
142
214
117
131
97
194
144
207
143
232
20
